
Gurobi 9.5.0 (win64) logging started Thu May 12 11:57:06 2022

Set parameter LogFile to value "../results/logs/log_soc-karate_3_250_2022_05_12_11_57.log"
Set parameter LazyConstraints to value 1
Gurobi Optimizer version 9.5.0 build v9.5.0rc5 (win64)
Thread count: 6 physical cores, 12 logical processors, using up to 12 threads
Optimize a model with 474 rows, 111 columns and 1456 nonzeros
Model fingerprint: 0x962051a3
Variable types: 0 continuous, 111 integer (111 binary)
Coefficient statistics:
  Matrix range     [1e+00, 1e+00]
  Objective range  [1e+00, 1e+00]
  Bounds range     [1e+00, 1e+00]
  RHS range        [1e+00, 1e+00]
Found heuristic solution: objective 37.0000000

Explored 0 nodes (0 simplex iterations) in 0.00 seconds (0.00 work units)
Thread count was 1 (of 12 available processors)

Solution count 1: 37 

Optimal solution found (tolerance 0.00e+00)
Best objective 3.700000000000e+01, best bound 3.700000000000e+01, gap 0.0000%

User-callback calls 21, time in user-callback 0.00 sec
